p wcnf 167 250 251 
1 37 72 0 
1 -99 -14 0 
1 -130 -15 0 
1 135 -22 0 
1 79 -102 0 
1 79 34 0 
1 66 98 0 
1 21 162 0 
1 48 -109 0 
1 78 143 0 
1 126 129 0 
1 107 -3 0 
1 90 -40 0 
1 -161 137 0 
1 -31 77 0 
1 47 92 0 
1 36 90 0 
1 136 -7 0 
1 -151 67 0 
1 17 73 0 
1 -144 -94 0 
1 -18 147 0 
1 -108 -116 0 
1 -62 -80 0 
1 29 -32 0 
1 87 161 0 
1 -34 92 0 
1 68 -49 0 
1 -5 -77 0 
1 -102 -62 0 
1 39 -114 0 
1 104 114 0 
1 42 138 0 
1 -149 -45 0 
1 150 -67 0 
1 -53 106 0 
1 -134 -83 0 
1 -149 126 0 
1 117 -50 0 
1 -45 144 0 
1 -65 -3 0 
1 -8 67 0 
1 34 132 0 
1 -150 -82 0 
1 -89 -5 0 
1 -134 152 0 
1 -26 -156 0 
1 -75 -86 0 
1 106 3 0 
1 37 59 0 
1 145 -41 0 
1 -8 66 0 
1 123 167 0 
1 79 -63 0 
1 23 104 0 
1 -41 -7 0 
1 -59 -111 0 
1 -86 51 0 
1 164 13 0 
1 -10 -97 0 
1 127 -13 0 
1 71 -32 0 
1 -122 -81 0 
1 96 67 0 
1 96 -129 0 
1 -72 -93 0 
1 -114 -113 0 
1 110 68 0 
1 27 109 0 
1 24 126 0 
1 101 -103 0 
1 -70 3 0 
1 122 156 0 
1 -70 -15 0 
1 162 90 0 
1 72 127 0 
1 154 97 0 
1 -100 150 0 
1 -88 131 0 
1 -133 46 0 
1 -23 73 0 
1 50 64 0 
1 -149 -14 0 
1 49 123 0 
1 -118 54 0 
1 20 -92 0 
1 -123 -3 0 
1 18 66 0 
1 126 17 0 
1 -58 48 0 
1 98 -97 0 
1 147 16 0 
1 -45 -32 0 
1 -90 -140 0 
1 -39 -15 0 
1 -4 -50 0 
1 58 91 0 
1 73 -133 0 
1 -9 133 0 
1 -120 -156 0 
1 -74 -46 0 
1 -53 29 0 
1 -27 140 0 
1 -103 -27 0 
1 87 10 0 
1 -116 122 0 
1 58 78 0 
1 82 -45 0 
1 30 21 0 
1 162 115 0 
1 40 102 0 
1 5 152 0 
1 150 82 0 
1 -114 34 0 
1 65 -77 0 
1 -59 24 0 
1 118 33 0 
1 73 20 0 
1 83 143 0 
1 166 80 0 
1 53 78 0 
1 24 74 0 
1 37 -64 0 
1 -1 -51 0 
1 3 -43 0 
1 67 107 0 
1 85 -97 0 
1 -54 108 0 
1 15 -78 0 
1 31 -3 0 
1 40 99 0 
1 -1 2 0 
1 4 11 0 
1 95 -69 0 
1 -137 27 0 
1 75 29 0 
1 -12 142 0 
1 70 -127 0 
1 -167 25 0 
1 -16 123 0 
1 -70 115 0 
1 -121 158 0 
1 59 114 0 
1 155 -103 0 
1 159 -139 0 
1 39 -81 0 
1 75 -167 0 
1 -124 36 0 
1 4 112 0 
1 -32 5 0 
1 -35 -99 0 
1 -155 105 0 
1 127 42 0 
1 -63 -84 0 
1 30 28 0 
1 126 88 0 
1 -156 -131 0 
1 155 56 0 
1 -44 36 0 
1 58 89 0 
1 133 144 0 
1 -157 -101 0 
1 11 52 0 
1 99 47 0 
1 132 -102 0 
1 -13 -102 0 
1 -126 -110 0 
1 -165 -112 0 
1 48 44 0 
1 -60 -127 0 
1 -100 75 0 
1 146 -78 0 
1 -118 15 0 
1 -32 -15 0 
1 -16 -114 0 
1 23 -9 0 
1 -66 -152 0 
1 22 25 0 
1 6 -89 0 
1 60 2 0 
1 165 13 0 
1 -134 96 0 
1 -112 -93 0 
1 113 -2 0 
1 -110 -37 0 
1 -90 -127 0 
1 42 -142 0 
1 42 -110 0 
1 50 -80 0 
1 30 42 0 
1 1 -39 0 
1 -22 -25 0 
1 -82 -116 0 
1 100 74 0 
1 -121 -35 0 
1 76 103 0 
1 155 -19 0 
1 155 -65 0 
1 -76 -90 0 
1 86 35 0 
1 118 140 0 
1 40 18 0 
1 36 -58 0 
1 -163 -144 0 
1 24 75 0 
1 -126 41 0 
1 -63 28 0 
1 -70 45 0 
1 -12 118 0 
1 101 -157 0 
1 -2 -26 0 
1 -143 126 0 
1 129 122 0 
1 162 -165 0 
1 -161 -118 0 
1 -166 -92 0 
1 67 119 0 
1 155 -120 0 
1 -160 26 0 
1 -125 42 0 
1 86 161 0 
1 -34 -139 0 
1 -41 -132 0 
1 10 93 0 
1 154 -11 0 
1 -3 -35 0 
1 130 107 0 
1 -39 -20 0 
1 -68 56 0 
1 134 -81 0 
1 101 -109 0 
1 108 22 0 
1 -51 33 0 
1 105 35 0 
1 -67 146 0 
1 47 40 0 
1 131 130 0 
1 60 134 0 
1 -126 7 0 
1 43 72 0 
1 55 -146 0 
1 -115 47 0 
1 -131 74 0 
1 143 -93 0 
1 148 -71 0 
1 -115 -54 0 
1 -90 -19 0 
1 154 -78 0 
1 152 -60 0 
1 -66 106 0 
